$molecule
0 1
  C   -0.4524100   -0.0799608   -0.3220435
  C    0.9521013   -0.4833020   -0.5569743
  O    0.5718642    0.8719527   -0.3951861
  H    1.2841825   -0.6186809   -1.6071119
  H    1.5953534   -0.7585936    0.3052475
  H   -1.1307797   -0.0215837   -1.1987806
  C   -0.9872986   -0.2315006    1.0978239
  H   -0.1735979   -0.2130598    1.8549413
  H   -1.6909260    0.5991971    1.3135287
  H   -1.5331407   -1.1940051    1.1809629
$end

$rem
method  hf
basis   ccpvtz
cis_n_roots 100
cis_singlet 1
rpa     false
$end
